projected/problems_b25_r0_d7_m100_s666/_DIMACS/b25_d7_r0_s666_048.cnf
p cnf 247 398 25
c p show 1 2 3 4 5 6 7 8 9 10 11 12 13 14 15 16 17 18 19 20 21 22 23 24 25
-129 -9 7 0
-130 -16 -4 0
-131 130 0
-131 129 0
-132 -10 0
-132 24 0
-134 1 25 0
-135 134 132 0
-136 -1 0
-136 -25 0
-137 10 -24 0
-138 137 136 0
-139 138 0
-139 135 0
-140 139 0
-140 131 0
-141 -6 0
-141 -5 0
-142 15 0
-142 -17 0
-143 142 141 0
-144 18 0
-145 -18 0
-146 145 144 0
-147 -23 -14 0
-148 147 146 0
-149 148 143 0
-150 -18 0
-151 18 0
-152 151 0
-152 150 0
-153 23 0
-153 14 0
-154 153 0
-154 152 0
-155 6 5 0
-156 -15 17 0
-157 156 0
-157 155 0
-158 157 154 0
-159 158 0
-159 149 0
-160 159 0
-160 140 0
-161 10 6 0
-162 19 0
-162 -4 0
-163 162 161 0
-164 9 24 0
-165 -15 0
-165 -21 0
-166 21 0
-166 15 0
-167 166 165 0
-168 167 164 0
-169 168 163 0
-170 -7 -3 0
-171 -20 25 0
-172 171 170 0
-173 -14 4 0
-174 -4 14 0
-175 174 0
-175 173 0
-176 -5 0
-176 4 0
-177 176 175 0
-178 177 172 0
-179 178 169 0
-180 7 0
-180 3 0
-181 20 0
-181 -25 0
-182 181 0
-182 180 0
-183 14 0
-183 -4 0
-184 4 0
-184 -14 0
-185 184 183 0
-186 5 -4 0
-187 186 0
-187 185 0
-188 187 0
-188 182 0
-189 -10 0
-189 -6 0
-190 -19 4 0
-191 190 0
-191 189 0
-192 -9 0
-192 -24 0
-193 15 21 0
-194 -21 -15 0
-195 194 0
-195 193 0
-196 195 0
-196 192 0
-197 196 0
-197 191 0
-198 197 188 0
-199 198 0
-199 179 0
-200 199 0
-200 160 0
-201 -5 2 0
-202 8 0
-202 16 0
-203 202 201 0
-204 -8 -16 0
-205 5 0
-205 -2 0
-206 205 204 0
-207 206 0
-207 203 0
-208 21 7 0
-209 19 0
-209 8 0
-210 209 208 0
-211 210 0
-211 207 0
-212 -4 0
-212 23 0
-213 -22 -19 0
-214 213 0
-214 212 0
-215 22 0
-215 19 0
-216 4 -23 0
-217 216 0
-217 215 0
-218 217 214 0
-219 -12 0
-219 3 0
-220 -15 0
-220 -10 0
-221 220 0
-221 219 0
-222 221 218 0
-223 222 211 0
-224 -24 0
-224 12 0
-225 7 -25 0
-226 225 224 0
-227 -7 0
-227 25 0
-228 24 -12 0
-229 228 227 0
-230 229 0
-230 226 0
-231 3 0
-231 19 0
-232 -18 -12 0
-233 12 18 0
-234 233 0
-234 232 0
-235 234 231 0
-236 235 230 0
-237 24 -23 0
-238 2 0
-238 20 0
-239 238 0
-239 237 0
-240 -11 0
-240 3 0
-241 10 0
-241 1 0
-242 -1 0
-242 -10 0
-243 242 241 0
-244 243 240 0
-245 244 239 0
-246 245 236 0
-247 246 223 0
-26 247 200 0
-27 -21 0
-27 24 0
-124 -7 0
-124 21 0
-28 124 0
-28 27 0
-125 3 -1 0
-126 -10 0
-126 -11 0
-127 126 0
-127 125 0
-29 127 28 0
-128 22 0
-128 -7 0
-133 -5 0
-133 2 0
-30 133 128 0
-31 -3 -13 0
-32 -10 -4 0
-33 32 31 0
-34 33 0
-34 30 0
-35 34 29 0
-36 -11 0
-36 -14 0
-37 18 15 0
-38 37 36 0
-39 1 0
-40 17 0
-40 3 0
-41 40 39 0
-42 -17 -3 0
-43 -1 0
-44 43 42 0
-45 44 0
-45 41 0
-46 45 0
-46 38 0
-47 1 0
-47 -7 0
-48 -22 8 0
-49 48 47 0
-50 -5 -20 0
-51 20 5 0
-52 51 0
-52 50 0
-53 -21 0
-53 -7 0
-54 53 0
-54 52 0
-55 54 49 0
-56 55 0
-56 46 0
-57 56 35 0
-58 -23 0
-58 25 0
-59 2 0
-59 -20 0
-60 20 0
-60 -2 0
-61 60 59 0
-62 61 0
-62 58 0
-63 -2 20 0
-64 -20 2 0
-65 64 0
-65 63 0
-66 23 -25 0
-67 66 0
-67 65 0
-68 67 62 0
-69 6 -22 0
-70 22 -6 0
-71 70 0
-71 69 0
-72 10 -5 0
-73 72 0
-73 71 0
-74 73 0
-74 68 0
-75 12 0
-75 -24 0
-76 13 0
-76 8 0
-77 76 75 0
-78 -24 -14 0
-79 9 1 0
-80 79 78 0
-81 80 0
-81 77 0
-82 81 74 0
-83 -12 24 0
-84 -13 -8 0
-85 84 0
-85 83 0
-86 24 0
-86 14 0
-87 -9 0
-87 -1 0
-88 87 0
-88 86 0
-89 88 85 0
-90 65 66 0
-91 58 61 0
-92 91 0
-92 90 0
-93 -6 0
-93 22 0
-94 -22 0
-94 6 0
-95 94 93 0
-96 -10 0
-96 5 0
-97 96 95 0
-98 97 92 0
-99 98 89 0
-100 99 0
-100 82 0
-101 -12 0
-101 -11 0
-102 -7 -19 0
-103 102 0
-103 101 0
-104 -8 -17 0
-105 12 0
-105 16 0
-106 105 104 0
-107 -12 -16 0
-108 8 0
-108 17 0
-109 108 107 0
-110 109 0
-110 106 0
-111 110 0
-111 103 0
-112 22 24 0
-113 1 20 0
-114 -20 -1 0
-115 114 0
-115 113 0
-116 115 112 0
-117 3 15 0
-118 19 -25 0
-119 118 0
-119 117 0
-120 119 0
-120 116 0
-121 120 111 0
-122 121 0
-122 100 0
-123 122 57 0
123 0
26 0
-134 -136 0
-136 -134 0
-137 -132 0
-132 -137 0
-152 -146 0
-146 -152 0
-153 -147 0
-147 -153 0
-148 -154 0
-154 -148 0
-155 -141 0
-141 -155 0
-142 -156 0
-143 -157 0
-170 -180 0
-180 -170 0
-181 -171 0
-182 -172 0
-172 -182 0
-175 -185 0
-186 -176 0
-176 -186 0
-177 -187 0
-178 -188 0
-188 -178 0
-189 -161 0
-161 -189 0
-162 -190 0
-163 -191 0
-192 -164 0
-195 -167 0
-196 -168 0
-168 -196 0
-169 -197 0
-202 -204 0
-204 -202 0
-205 -201 0
-201 -205 0
-213 -215 0
-216 -212 0
-225 -227 0
-227 -225 0
-228 -224 0
-224 -228 0
-40 -42 0
-42 -40 0
-43 -39 0
-39 -43 0
-75 -83 0
-83 -75 0
-84 -76 0
-85 -77 0
-77 -85 0
-78 -86 0
-79 -87 0
-80 -88 0
-81 -89 0
-89 -81 0
-65 -61 0
-61 -65 0
-58 -66 0
-66 -58 0
-92 -68 0
-71 -95 0
-72 -96 0
-73 -97 0
-97 -73 0
-98 -74 0
-74 -98 0
-107 -105 0
-104 -108 0
