projected/problems_b25_r0_d7_m100_s666/b25_d7_r0_s666_048.smt2
(set-logic QF_UF)
(declare-fun A0 () Bool)
(declare-fun A1 () Bool)
(declare-fun A2 () Bool)
(declare-fun A3 () Bool)
(declare-fun A4 () Bool)
(declare-fun A5 () Bool)
(declare-fun A6 () Bool)
(declare-fun A7 () Bool)
(declare-fun A8 () Bool)
(declare-fun A9 () Bool)
(declare-fun A10 () Bool)
(declare-fun A11 () Bool)
(declare-fun A12 () Bool)
(declare-fun A13 () Bool)
(declare-fun A14 () Bool)
(declare-fun A15 () Bool)
(declare-fun A16 () Bool)
(declare-fun A17 () Bool)
(declare-fun A18 () Bool)
(declare-fun A19 () Bool)
(declare-fun A20 () Bool)
(declare-fun A21 () Bool)
(declare-fun A22 () Bool)
(declare-fun A23 () Bool)
(declare-fun A24 () Bool)
(assert (let ((.def_0 (not A6))) (let ((.def_1 (and A8 .def_0))) (let ((.def_2 (not .def_1))) (let ((.def_3 (and A15 A3))) (let ((.def_4 (not .def_3))) (let ((.def_5 (and .def_4 .def_2))) (let ((.def_6 (or A0 A24))) (let ((.def_7 (not .def_6))) (let ((.def_8 (not A23))) (let ((.def_9 (or A9 .def_8))) (let ((.def_10 (not .def_9))) (let ((.def_11 (= .def_10 .def_7))) (let ((.def_12 (and .def_11 .def_5))) (let ((.def_13 (not A17))) (let ((.def_14 (= .def_13 A17))) (let ((.def_15 (not .def_14))) (let ((.def_16 (and A22 A13))) (let ((.def_17 (not .def_16))) (let ((.def_18 (or .def_17 .def_15))) (let ((.def_19 (not .def_18))) (let ((.def_20 (or A5 A4))) (let ((.def_21 (not .def_20))) (let ((.def_22 (not A16))) (let ((.def_23 (and A14 .def_22))) (let ((.def_24 (or .def_23 .def_21))) (let ((.def_25 (= .def_24 .def_19))) (let ((.def_26 (and .def_25 .def_12))) (let ((.def_27 (not .def_26))) (let ((.def_28 (not A2))) (let ((.def_29 (or .def_0 .def_28))) (let ((.def_30 (not .def_29))) (let ((.def_31 (not A24))) (let ((.def_32 (and A19 .def_31))) (let ((.def_33 (and .def_32 .def_30))) (let ((.def_34 (not .def_33))) (let ((.def_35 (= A3 A13))) (let ((.def_36 (not A3))) (let ((.def_37 (or A4 .def_36))) (let ((.def_38 (not .def_37))) (let ((.def_39 (or .def_38 .def_35))) (let ((.def_40 (or .def_39 .def_34))) (let ((.def_41 (not .def_40))) (let ((.def_42 (not A5))) (let ((.def_43 (not A9))) (let ((.def_44 (and .def_43 .def_42))) (let ((.def_45 (not .def_44))) (let ((.def_46 (and A18 .def_36))) (let ((.def_47 (or .def_46 .def_45))) (let ((.def_48 (not A8))) (let ((.def_49 (and .def_48 .def_8))) (let ((.def_50 (not A14))) (let ((.def_51 (= A20 .def_50))) (let ((.def_52 (and .def_51 .def_49))) (let ((.def_53 (not .def_52))) (let ((.def_54 (or .def_53 .def_47))) (let ((.def_55 (= .def_54 .def_41))) (let ((.def_56 (not .def_55))) (let ((.def_57 (or .def_56 .def_27))) (let ((.def_58 (not .def_57))) (let ((.def_59 (and A7 A15))) (let ((.def_60 (not .def_59))) (let ((.def_61 (not A1))) (let ((.def_62 (and A4 .def_61))) (let ((.def_63 (not .def_62))) (let ((.def_64 (= .def_63 .def_60))) (let ((.def_65 (or A20 A6))) (let ((.def_66 (not .def_65))) (let ((.def_67 (and A18 A7))) (let ((.def_68 (not .def_67))) (let ((.def_69 (and .def_68 .def_66))) (let ((.def_70 (not .def_69))) (let ((.def_71 (and .def_70 .def_64))) (let ((.def_72 (not .def_71))) (let ((.def_73 (not A18))) (let ((.def_74 (not A21))) (let ((.def_75 (or .def_74 .def_73))) (let ((.def_76 (not A22))) (let ((.def_77 (or A3 .def_76))) (let ((.def_78 (= .def_77 .def_75))) (let ((.def_79 (not A11))) (let ((.def_80 (and .def_79 A2))) (let ((.def_81 (not .def_80))) (let ((.def_82 (or A14 A9))) (let ((.def_83 (or .def_82 .def_81))) (let ((.def_84 (and .def_83 .def_78))) (let ((.def_85 (and .def_84 .def_72))) (let ((.def_86 (or A6 .def_31))) (let ((.def_87 (not .def_86))) (let ((.def_88 (or A23 .def_79))) (let ((.def_89 (not .def_88))) (let ((.def_90 (= .def_89 .def_87))) (let ((.def_91 (not .def_90))) (let ((.def_92 (or .def_28 .def_73))) (let ((.def_93 (not .def_92))) (let ((.def_94 (= .def_79 A17))) (let ((.def_95 (or .def_94 .def_93))) (let ((.def_96 (not .def_95))) (let ((.def_97 (and .def_96 .def_91))) (let ((.def_98 (and .def_8 A22))) (let ((.def_99 (not .def_98))) (let ((.def_100 (and A1 A19))) (let ((.def_101 (and .def_100 .def_99))) (let ((.def_102 (or A10 .def_28))) (let ((.def_103 (not .def_102))) (let ((.def_104 (not A0))) (let ((.def_105 (= .def_104 A9))) (let ((.def_106 (not .def_105))) (let ((.def_107 (or .def_106 .def_103))) (let ((.def_108 (or .def_107 .def_101))) (let ((.def_109 (not .def_108))) (let ((.def_110 (and .def_109 .def_97))) (let ((.def_111 (and .def_110 .def_85))) (let ((.def_112 (not .def_111))) (let ((.def_113 (or .def_112 .def_58))) (let ((.def_114 (not .def_113))) (let ((.def_115 (not A20))) (let ((.def_116 (and .def_115 A23))) (let ((.def_117 (not .def_116))) (let ((.def_118 (and .def_0 A20))) (let ((.def_119 (not .def_118))) (let ((.def_120 (or .def_119 .def_117))) (let ((.def_121 (and .def_28 A0))) (let ((.def_122 (or A9 A10))) (let ((.def_123 (or .def_122 .def_121))) (let ((.def_124 (and .def_123 .def_120))) (let ((.def_125 (or .def_74 A6))) (let ((.def_126 (or A4 .def_61))) (let ((.def_127 (and .def_126 .def_125))) (let ((.def_128 (and A2 A12))) (let ((.def_129 (not .def_128))) (let ((.def_130 (or .def_43 .def_36))) (let ((.def_131 (or .def_130 .def_129))) (let ((.def_132 (not .def_131))) (let ((.def_133 (or .def_132 .def_127))) (let ((.def_134 (and .def_133 .def_124))) (let ((.def_135 (not A13))) (let ((.def_136 (not A10))) (let ((.def_137 (and .def_136 .def_135))) (let ((.def_138 (or A17 A14))) (let ((.def_139 (or .def_138 .def_137))) (let ((.def_140 (and A16 A2))) (let ((.def_141 (not .def_140))) (let ((.def_142 (and .def_104 .def_104))) (let ((.def_143 (not .def_142))) (let ((.def_144 (= .def_143 .def_141))) (let ((.def_145 (and .def_144 .def_139))) (let ((.def_146 (not .def_145))) (let ((.def_147 (and A0 .def_0))) (let ((.def_148 (not .def_147))) (let ((.def_149 (or .def_74 A7))) (let ((.def_150 (not .def_149))) (let ((.def_151 (and .def_150 .def_148))) (let ((.def_152 (not A19))) (let ((.def_153 (= .def_152 A4))) (let ((.def_154 (not .def_153))) (let ((.def_155 (and .def_115 .def_0))) (let ((.def_156 (not .def_155))) (let ((.def_157 (or .def_156 .def_154))) (let ((.def_158 (and .def_157 .def_151))) (let ((.def_159 (or .def_158 .def_146))) (let ((.def_160 (and .def_159 .def_134))) (let ((.def_161 (not .def_160))) (let ((.def_162 (and A11 .def_8))) (let ((.def_163 (not .def_162))) (let ((.def_164 (not A7))) (let ((.def_165 (not A12))) (let ((.def_166 (or .def_165 .def_164))) (let ((.def_167 (and .def_166 .def_163))) (let ((.def_168 (not .def_167))) (let ((.def_169 (or .def_8 .def_135))) (let ((.def_170 (or A8 A0))) (let ((.def_171 (or .def_170 .def_169))) (let ((.def_172 (and .def_171 .def_168))) (let ((.def_173 (not .def_172))) (let ((.def_174 (= A19 A1))) (let ((.def_175 (not .def_174))) (let ((.def_176 (and .def_76 A24))) (let ((.def_177 (not .def_176))) (let ((.def_178 (= .def_177 .def_175))) (let ((.def_179 (= .def_74 .def_42))) (let ((.def_180 (not A4))) (let ((.def_181 (or A9 .def_180))) (let ((.def_182 (and .def_181 .def_179))) (let ((.def_183 (not .def_182))) (let ((.def_184 (or .def_183 .def_178))) (let ((.def_185 (not .def_184))) (let ((.def_186 (= .def_185 .def_173))) (let ((.def_187 (not .def_186))) (let ((.def_188 (or A11 A10))) (let ((.def_189 (and A6 A18))) (let ((.def_190 (or .def_189 .def_188))) (let ((.def_191 (not A15))) (let ((.def_192 (or .def_79 .def_191))) (let ((.def_193 (or .def_164 .def_22))) (let ((.def_194 (= .def_193 .def_192))) (let ((.def_195 (not .def_194))) (let ((.def_196 (or .def_195 .def_190))) (let ((.def_197 (and .def_74 .def_8))) (let ((.def_198 (= A19 .def_104))) (let ((.def_199 (not .def_198))) (let ((.def_200 (and .def_199 .def_197))) (let ((.def_201 (or A2 A14))) (let ((.def_202 (not .def_201))) (let ((.def_203 (and .def_73 A24))) (let ((.def_204 (or .def_203 .def_202))) (let ((.def_205 (or .def_204 .def_200))) (let ((.def_206 (and .def_205 .def_196))) (let ((.def_207 (or .def_206 .def_187))) (let ((.def_208 (not .def_207))) (let ((.def_209 (or .def_208 .def_161))) (let ((.def_210 (not .def_209))) (let ((.def_211 (or .def_210 .def_114))) (let ((.def_212 (not .def_211))) .def_212))))))))))))))))))))))))))))))))))))))))))))))))))))))))))))))))))))))))))))))))))))))))))))))))))))))))))))))))))))))))))))))))))))))))))))))))))))))))))))))))))))))))))))))))))))))))))))))))))))))))))))))))))))))
(check-sat)
